Reading model...
...model read.
creating competitive generators file...
...competitive generators recorded.
Loading data...
.. real-time data read.
Compiling instance...
...instance created.
Creating Offer Mitigation (model will solve as dispatch if TRUE)...
NOTE: storage offers will not be mitigated
...storage offer mitigation file created
Converting model to MPEC...
...converted
NOTE: initial MIP solve with only storage competitive to get feasible solution
Solving...

Welcome to IBM(R) ILOG(R) CPLEX(R) Interactive Optimizer 12.9.0.0
  with Simplex, Mixed Integer & Barrier Optimizers
5725-A06 5725-A29 5724-Y48 5724-Y49 5724-Y54 5724-Y55 5655-Y21
Copyright IBM Corp. 1988, 2019.  All Rights Reserved.

Type 'help' for a list of available commands.
Type 'help' followed by a command name for more
information on commands.

CPLEX> Logfile 'cplex.log' closed.
Logfile 'C:\Users\llavin\Desktop\test715\logs\tmpvmkn89sj.cplex.log' open.
CPLEX> New value for parallel optimization mode: -1
CPLEX> New value for mixed integer optimality gap tolerance: 0.01
CPLEX> New value for deterministic time limit in ticks: 100000
CPLEX> Problem 'C:\Users\llavin\Desktop\test715\logs\tmp6c1ie4ui.pyomo.lp' read.
Read time = 0.50 sec. (27.36 ticks)
CPLEX> Problem name         : C:\Users\llavin\Desktop\test715\logs\tmp6c1ie4ui.pyomo.lp
Objective sense      : Maximize
Variables            :  106816  [Nneg: 1,  Box: 43669,  Free: 8832,
                                 Binary: 54314]
Objective nonzeros   :   17507
Linear constraints   :  244875  [Less: 82143,  Greater: 117460,  Equal: 45272]
  Nonzeros           :  576919
  RHS nonzeros       :  133805

Variables            : Min LB: -5000.000        Max UB: 1000000.       
Objective nonzeros   : Min   : 0.1000000        Max   : 827.6000       
Linear constraints   :
  Nonzeros           : Min   : 0.008333333      Max   : 1000000.       
  RHS nonzeros       : Min   : 0.008333333      Max   : 1000000.       
CPLEX> CPXPARAM_Parallel                                -1
CPXPARAM_DetTimeLimit                            100000
CPXPARAM_MIP_Tolerances_MIPGap                   0.01
Tried aggregator 3 times.
MIP Presolve eliminated 177632 rows and 40569 columns.
MIP Presolve added 6226 rows and 0 columns.
MIP Presolve modified 48564 coefficients.
Aggregator did 25688 substitutions.
Reduced MIP has 47781 rows, 39061 columns, and 142536 nonzeros.
Reduced MIP has 15411 binaries, 0 generals, 0 SOSs, and 0 indicators.
Presolve time = 0.58 sec. (334.53 ticks)
Probing fixed 809 vars, tightened 9321 bounds.
Probing time = 0.38 sec. (14.88 ticks)
Tried aggregator 2 times.
MIP Presolve eliminated 1809 rows and 1619 columns.
MIP Presolve modified 5552 coefficients.
Aggregator did 48 substitutions.
Reduced MIP has 45924 rows, 37394 columns, and 137150 nonzeros.
Reduced MIP has 14602 binaries, 0 generals, 0 SOSs, and 0 indicators.
Presolve time = 0.23 sec. (145.82 ticks)
Probing fixed 0 vars, tightened 487 bounds.
Probing time = 0.64 sec. (25.28 ticks)
Clique table members: 106021.
MIP emphasis: balance optimality and feasibility.
MIP search method: dynamic search.
Parallel mode: opportunistic, using up to 32 threads.
Root relaxation solution time = 0.95 sec. (1738.50 ticks)

        Nodes                                         Cuts/
   Node  Left     Objective  IInf  Best Integer    Best Bound    ItCnt     Gap

      0     0     1154.4827    44                   1154.4827     9722         
*     0     0      integral     0     1154.4827     1154.4827     9722    0.00%
Elapsed time = 3.97 sec. (3360.13 ticks, tree = 0.01 MB, solutions = 1)

Root node processing (before b&c):
  Real time             =    4.00 sec. (3363.96 ticks)
Parallel b&c, 32 threads:
  Real time             =    0.00 sec. (0.00 ticks)
  Sync time (average)   =    0.00 sec.
  Wait time (average)   =    0.00 sec.
                          ------------
Total (root+branch&cut) =    4.00 sec. (3363.96 ticks)

Solution pool: 1 solution saved.

MIP - Integer optimal solution:  Objective =  1.1544826766e+03
Solution time =    4.02 sec.  Iterations = 9722  Nodes = 0
Deterministic time = 3364.26 ticks  (837.71 ticks/sec)

CPLEX> Incumbent solution written to file 'C:\Users\llavin\Desktop\test715\logs\tmpdxcaq71h.cplex.sol'.
CPLEX> NOTE: no warmstart specified for MIP iteration, default behavior is true
NOTE: resolving with all competitive generators using storage-only solution to warmstart
Solving...

Welcome to IBM(R) ILOG(R) CPLEX(R) Interactive Optimizer 12.9.0.0
  with Simplex, Mixed Integer & Barrier Optimizers
5725-A06 5725-A29 5724-Y48 5724-Y49 5724-Y54 5724-Y55 5655-Y21
Copyright IBM Corp. 1988, 2019.  All Rights Reserved.

Type 'help' for a list of available commands.
Type 'help' followed by a command name for more
information on commands.

CPLEX> Logfile 'cplex.log' closed.
Logfile 'C:\Users\llavin\Desktop\test715\logs\tmpnkbx1zep.cplex.log' open.
CPLEX> New value for parallel optimization mode: -1
CPLEX> New value for mixed integer optimality gap tolerance: 0.01
CPLEX> New value for deterministic time limit in ticks: 100000
CPLEX> Problem 'C:\Users\llavin\Desktop\test715\logs\tmp05n8uxf8.pyomo.lp' read.
Read time = 0.55 sec. (27.41 ticks)
CPLEX> MIP start file 'C:\Users\llavin\Desktop\test715\logs\tmpv8efpsud.cplex.mst' read.
CPLEX> Problem name         : C:\Users\llavin\Desktop\test715\logs\tmp05n8uxf8.pyomo.lp
Objective sense      : Maximize
Variables            :  108256  [Nneg: 1,  Box: 45109,  Free: 8832,
                                 Binary: 54314]
Objective nonzeros   :   18899
Linear constraints   :  244875  [Less: 82143,  Greater: 117460,  Equal: 45272]
  Nonzeros           :  576919
  RHS nonzeros       :  133805

Variables            : Min LB: -5000.000        Max UB: 1000000.       
Objective nonzeros   : Min   : 0.1000000        Max   : 785.4000       
Linear constraints   :
  Nonzeros           : Min   : 0.008333333      Max   : 1000000.       
  RHS nonzeros       : Min   : 0.008333333      Max   : 1000000.       
CPLEX> CPXPARAM_Parallel                                -1
CPXPARAM_DetTimeLimit                            100000
CPXPARAM_MIP_Tolerances_MIPGap                   0.01
1 of 1 MIP starts provided solutions.
MIP start 'm1' defined initial solution with objective 1154.4827.
Tried aggregator 3 times.
MIP Presolve eliminated 177632 rows and 42009 columns.
MIP Presolve added 6226 rows and 0 columns.
MIP Presolve modified 48564 coefficients.
Aggregator did 25688 substitutions.
Reduced MIP has 47781 rows, 39061 columns, and 142536 nonzeros.
Reduced MIP has 15411 binaries, 0 generals, 0 SOSs, and 0 indicators.
Presolve time = 0.61 sec. (335.24 ticks)
Probing fixed 809 vars, tightened 9321 bounds.
Probing time = 0.38 sec. (14.88 ticks)
Tried aggregator 2 times.
MIP Presolve eliminated 1809 rows and 1619 columns.
MIP Presolve modified 5552 coefficients.
Aggregator did 48 substitutions.
Reduced MIP has 45924 rows, 37394 columns, and 137150 nonzeros.
Reduced MIP has 14602 binaries, 0 generals, 0 SOSs, and 0 indicators.
Presolve time = 0.28 sec. (145.83 ticks)
Probing fixed 0 vars, tightened 448 bounds.
Probing time = 0.66 sec. (21.81 ticks)
Clique table members: 106021.
MIP emphasis: balance optimality and feasibility.
MIP search method: dynamic search.
Parallel mode: opportunistic, using up to 32 threads.
Root relaxation solution time = 1.31 sec. (2011.11 ticks)

        Nodes                                         Cuts/
   Node  Left     Objective  IInf  Best Integer    Best Bound    ItCnt     Gap

*     0+    0                         1154.4827   1.24623e+08              --- 
      0     0   250474.2239   522     1154.4827   250474.2239    13163     --- 
*     0+    0                         1154.4833   250474.2239              --- 
      0     0   246267.5063   424     1154.4833     Cuts: 526    13571     --- 
      0     0   244548.5297   500     1154.4833     Cuts: 641    13943     --- 
      0     0   244351.3193   452     1154.4833     Cuts: 641    14156     --- 
      0     0   244315.1182   443     1154.4833     Cuts: 201    14221     --- 
      0     0   244303.5022   443     1154.4833      Cuts: 35    14237     --- 
      0     0   244285.4992   442     1154.4833      Cuts: 17    14261     --- 
      0     0   244277.4478   449     1154.4833      Cuts: 14    14271     --- 
      0     2   244277.4478   449     1154.4833       Cuts: 7    14271     --- 
Elapsed time = 13.16 sec. (6765.41 ticks, tree = 0.02 MB, solutions = 2)
    272    62   240748.4030   420     1154.4833   243291.8522    15285     --- 
    582   198   235094.2140   397     1154.4833   243291.8522    17730     --- 
    832   268   224457.7417   358     1154.4833   243291.8522    19586     --- 
   1190   526   217178.1639   392     1154.4833   243291.8522    24777     --- 
   1549  1042   207175.3764   368     1154.4833   243291.8522    33779     --- 
   1815  1442   203406.8888   326     1154.4833   243291.8522    39692     --- 
   2107  1524   192745.1915   321     1154.4833   243291.8522    41864     --- 
   2514  1758   179364.2520   321     1154.4833   243291.8522    55262     --- 
   2947  1701   173131.7710   353     1154.4833   243291.8522    50831     --- 
   4725  2811   156530.8213   258     1154.4833   243291.8522    96366     --- 
Elapsed time = 32.58 sec. (9872.72 ticks, tree = 147.49 MB, solutions = 2)
   5710  4104   139593.3166   182     1154.4833   243291.8522   136993     --- 
   5767  4693    infeasible           1154.4833   145232.5236   203377     --- 
   6052    46    32847.6399   122     1154.4833    54974.7308   218020     --- 
   6615    79     3769.9008    86     1154.4833    54029.0234   221474     --- 
   7333    80        cutoff           1154.4833    54029.0234   221105     --- 
   8116    75    13837.5421   106     1154.4833    35062.3909   221480     --- 
   8507   170    14293.6952   112     1154.4833    24198.7869   227611     --- 
   8920   165    infeasible           1154.4833    13986.9447   392337     --- 
   9364   484     3696.9267    59     1154.4833    13986.9447   361127     --- 
   9468   534    11630.1263   102     1154.4833    11552.7467   351578  900.69%
Elapsed time = 103.58 sec. (35180.34 ticks, tree = 6.00 MB, solutions = 2)
   9515   535     7386.1166    30     1154.4833    11552.7467   342430  900.69%
   9556   100     1781.5231    15     1154.4833    11552.7467   395330  900.69%

Cover cuts applied:  16
Implied bound cuts applied:  9
Flow cuts applied:  467
Mixed integer rounding cuts applied:  163
Lift and project cuts applied:  32
Gomory fractional cuts applied:  48

Root node processing (before b&c):
  Real time             =    9.41 sec. (6616.48 ticks)
Parallel b&c, 32 threads:
  Real time             =   94.48 sec. (30571.39 ticks)
  Sync time (average)   =    9.31 sec.
  Wait time (average)   =    0.32 sec.
                          ------------
Total (root+branch&cut) =  103.89 sec. (37187.87 ticks)

Solution pool: 2 solutions saved.

MIP - Integer optimal, tolerance (0.01/1e-06):  Objective =  1.1544833006e+03
Current MIP best bound =  1.1596782576e+03 (gap = 5.19496, 0.45%)
Solution time =  103.92 sec.  Iterations = 400031  Nodes = 9559 (3)
Deterministic time = 37188.18 ticks  (357.85 ticks/sec)

CPLEX> Incumbent solution written to file 'C:\Users\llavin\Desktop\test715\logs\tmp2rgaz3wh.cplex.sol'.
CPLEX> Exporting results... 
